proyfinal/src/viki/013/experimentInOfficeAgust.take6.output/655a06d5-41fa-4527-a143-21385cc0c461.als.out
Reading from standard input... Use '--help' for help.
============================[ Problem Statistics ]=============================
|                                                                             |
|  Number of variables:         87638                                         |
|  Number of clauses:          161767                                         |
|  Parse time:                   0.03 s                                       |
|                                                                             |
============================[ Search Statistics ]==============================
| Conflicts |          ORIGINAL         |          LEARNT          | Progress |
|           |    Vars  Clauses Literals |    Limit  Clauses Lit/Cl |          |
===============================================================================
|       100 |   61907   103508   258606 |    37952      100     36 | 29.361 % |
|       250 |   61907   103508   258606 |    41748      250     67 | 29.361 % |
|       475 |   61906   103464   258516 |    45923      473     75 | 29.362 % |
|       812 |   61906   103464   258516 |    50515      810     75 | 29.362 % |
|      1318 |   61906   103464   258516 |    55566     1316     67 | 29.362 % |
|      2077 |   61906   103464   258516 |    61123     2075     76 | 29.362 % |
|      3216 |   61906   103464   258516 |    67235     3214     83 | 29.362 % |
===============================================================================
restarts              : 25
conflicts             : 4660           (6779 /sec)
decisions             : 14960          (0.00 % random) (21763 /sec)
propagations          : 7416522        (10788939 /sec)
conflict literals     : 392529         (54.66 % deleted)
Memory used           : 26.64 MB
CPU time              : 0.687419 s

UNSATISFIABLE
